Food = {Oyster,Crab,Egg,Cabbage,Red cabbage,Eggplant,Whole Wheat Bread,Pearl Barley};
fibre = [0.05,0.05,0.05,2.50,3.83,3.00,7.00,16.00];
sugar = [0.45,0.45,1.10,3.20,2.63,3.53,6.00,0.80];
cost = [1.08,2.50,0.80,1.74,1.74,0.50,0.47,0.34];
satfat = [1.22,0.09,11.00,0.03,2.10,0.03,3.40,1.20];
protein = [21.55,18.29,13.00,1.28,1.43,0.98,13.00,10.00];
